* #variable= 567 #constraint= 748 
-1 x19 +1 x1 >= 0 ;
-1 x19 +1 x10 >= 0 ;
+1 x19 -1 x1 -1 x10 >= -1 ;
+1 x28 -1 x1 >= 0 ;
+1 x28 -1 x10 >= 0 ;
-1 x28 +1 x1 +1 x10 >= 0 ;
+1 x10 = 0 ;
-1 x20 +1 x2 >= 0 ;
-1 x20 +1 x11 >= 0 ;
+1 x20 -1 x2 -1 x11 >= -1 ;
+1 x29 -1 x2 >= 0 ;
+1 x29 -1 x11 >= 0 ;
-1 x29 +1 x2 +1 x11 >= 0 ;
+1 x11 = 1 ;
-1 x21 +1 x3 >= 0 ;
-1 x21 +1 x12 >= 0 ;
+1 x21 -1 x3 -1 x12 >= -1 ;
+1 x30 -1 x3 >= 0 ;
+1 x30 -1 x12 >= 0 ;
-1 x30 +1 x3 +1 x12 >= 0 ;
+1 x12 = 0 ;
-1 x22 +1 x4 >= 0 ;
-1 x22 +1 x13 >= 0 ;
+1 x22 -1 x4 -1 x13 >= -1 ;
+1 x31 -1 x4 >= 0 ;
+1 x31 -1 x13 >= 0 ;
-1 x31 +1 x4 +1 x13 >= 0 ;
+1 x13 = 1 ;
-1 x23 +1 x5 >= 0 ;
-1 x23 +1 x14 >= 0 ;
+1 x23 -1 x5 -1 x14 >= -1 ;
+1 x32 -1 x5 >= 0 ;
+1 x32 -1 x14 >= 0 ;
-1 x32 +1 x5 +1 x14 >= 0 ;
+1 x14 = 0 ;
-1 x24 +1 x6 >= 0 ;
-1 x24 +1 x15 >= 0 ;
+1 x24 -1 x6 -1 x15 >= -1 ;
+1 x33 -1 x6 >= 0 ;
+1 x33 -1 x15 >= 0 ;
-1 x33 +1 x6 +1 x15 >= 0 ;
+1 x15 = 1 ;
-1 x25 +1 x7 >= 0 ;
-1 x25 +1 x16 >= 0 ;
+1 x25 -1 x7 -1 x16 >= -1 ;
+1 x34 -1 x7 >= 0 ;
+1 x34 -1 x16 >= 0 ;
-1 x34 +1 x7 +1 x16 >= 0 ;
+1 x16 = 0 ;
-1 x26 +1 x8 >= 0 ;
-1 x26 +1 x17 >= 0 ;
+1 x26 -1 x8 -1 x17 >= -1 ;
+1 x35 -1 x8 >= 0 ;
+1 x35 -1 x17 >= 0 ;
-1 x35 +1 x8 +1 x17 >= 0 ;
+1 x17 = 1 ;
-1 x27 +1 x9 >= 0 ;
-1 x27 +1 x18 >= 0 ;
+1 x27 -1 x9 -1 x18 >= -1 ;
+1 x36 -1 x9 >= 0 ;
+1 x36 -1 x18 >= 0 ;
-1 x36 +1 x9 +1 x18 >= 0 ;
+1 x18 = 0 ;
-1 x46 +1 x28 >= 0 ;
-1 x46 +1 x37 >= 0 ;
+1 x46 -1 x28 -1 x37 >= -1 ;
+1 x208 -1 x46 = 0 ;
+1 x208 -1 x532 = 0 ;
-1 x289 +1 x19 >= 0 ;
-1 x289 +1 x37 >= 0 ;
+1 x289 -1 x19 -1 x37 >= -1 ;
+1 x451 -1 x289 = 0 ;
+1 x451 -1 x550 = 0 ;
+1 x550 -1 x532 +2 x551 -2 x533 +4 x552 -4 x534 +8 x553 -8 x535 +16 x554 -16 x536 +32 x555 -32 x537 +64 x556 -64 x538 +128 x557 -128 x539 +256 x558 -256 x540 +512 x559 -512 x541 +1024 x560 -1024 x542 +2048 x561 -2048 x543 +4096 x562 -4096 x544 +8192 x563 -8192 x545 +16384 x564 -16384 x546 +32768 x565 -32768 x547 +65536 x566 -65536 x548 +131072 x567 -131072 x549 >= 1 ;
-1 x55 +1 x29 >= 0 ;
-1 x55 +1 x37 >= 0 ;
+1 x55 -1 x29 -1 x37 >= -1 ;
-1 x47 +1 x28 >= 0 ;
-1 x47 +1 x38 >= 0 ;
+1 x47 -1 x28 -1 x38 >= -1 ;
+1 x217 -1 x55 = 0 ;
+2 x128 +1 x209 -1 x47 -1 x217 = 0 ;
+1 x209 -1 x533 = 0 ;
-1 x298 +1 x20 >= 0 ;
-1 x298 +1 x37 >= 0 ;
+1 x298 -1 x20 -1 x37 >= -1 ;
-1 x290 +1 x19 >= 0 ;
-1 x290 +1 x38 >= 0 ;
+1 x290 -1 x19 -1 x38 >= -1 ;
+1 x460 -1 x298 = 0 ;
+2 x371 +1 x452 -1 x290 -1 x460 = 0 ;
+1 x452 -1 x551 = 0 ;
-1 x64 +1 x30 >= 0 ;
-1 x64 +1 x37 >= 0 ;
+1 x64 -1 x30 -1 x37 >= -1 ;
-1 x56 +1 x29 >= 0 ;
-1 x56 +1 x38 >= 0 ;
+1 x56 -1 x29 -1 x38 >= -1 ;
-1 x48 +1 x28 >= 0 ;
-1 x48 +1 x39 >= 0 ;
+1 x48 -1 x28 -1 x39 >= -1 ;
+1 x226 -1 x64 = 0 ;
+2 x137 +1 x218 -1 x56 -1 x128 -1 x226 = 0 ;
+2 x129 +1 x210 -1 x48 -1 x218 = 0 ;
+1 x210 -1 x534 = 0 ;
-1 x307 +1 x21 >= 0 ;
-1 x307 +1 x37 >= 0 ;
+1 x307 -1 x21 -1 x37 >= -1 ;
-1 x299 +1 x20 >= 0 ;
-1 x299 +1 x38 >= 0 ;
+1 x299 -1 x20 -1 x38 >= -1 ;
-1 x291 +1 x19 >= 0 ;
-1 x291 +1 x39 >= 0 ;
+1 x291 -1 x19 -1 x39 >= -1 ;
+1 x469 -1 x307 = 0 ;
+2 x380 +1 x461 -1 x299 -1 x371 -1 x469 = 0 ;
+2 x372 +1 x453 -1 x291 -1 x461 = 0 ;
+1 x453 -1 x552 = 0 ;
-1 x73 +1 x31 >= 0 ;
-1 x73 +1 x37 >= 0 ;
+1 x73 -1 x31 -1 x37 >= -1 ;
-1 x65 +1 x30 >= 0 ;
-1 x65 +1 x38 >= 0 ;
+1 x65 -1 x30 -1 x38 >= -1 ;
-1 x57 +1 x29 >= 0 ;
-1 x57 +1 x39 >= 0 ;
+1 x57 -1 x29 -1 x39 >= -1 ;
-1 x49 +1 x28 >= 0 ;
-1 x49 +1 x40 >= 0 ;
+1 x49 -1 x28 -1 x40 >= -1 ;
+1 x235 -1 x73 = 0 ;
+2 x146 +1 x227 -1 x65 -1 x137 -1 x235 = 0 ;
+2 x138 +1 x219 -1 x57 -1 x129 -1 x227 = 0 ;
+2 x130 +1 x211 -1 x49 -1 x219 = 0 ;
+1 x211 -1 x535 = 0 ;
-1 x316 +1 x22 >= 0 ;
-1 x316 +1 x37 >= 0 ;
+1 x316 -1 x22 -1 x37 >= -1 ;
-1 x308 +1 x21 >= 0 ;
-1 x308 +1 x38 >= 0 ;
+1 x308 -1 x21 -1 x38 >= -1 ;
-1 x300 +1 x20 >= 0 ;
-1 x300 +1 x39 >= 0 ;
+1 x300 -1 x20 -1 x39 >= -1 ;
-1 x292 +1 x19 >= 0 ;
-1 x292 +1 x40 >= 0 ;
+1 x292 -1 x19 -1 x40 >= -1 ;
+1 x478 -1 x316 = 0 ;
+2 x389 +1 x470 -1 x308 -1 x380 -1 x478 = 0 ;
+2 x381 +1 x462 -1 x300 -1 x372 -1 x470 = 0 ;
+2 x373 +1 x454 -1 x292 -1 x462 = 0 ;
+1 x454 -1 x553 = 0 ;
-1 x82 +1 x32 >= 0 ;
-1 x82 +1 x37 >= 0 ;
+1 x82 -1 x32 -1 x37 >= -1 ;
-1 x74 +1 x31 >= 0 ;
-1 x74 +1 x38 >= 0 ;
+1 x74 -1 x31 -1 x38 >= -1 ;
-1 x66 +1 x30 >= 0 ;
-1 x66 +1 x39 >= 0 ;
+1 x66 -1 x30 -1 x39 >= -1 ;
-1 x58 +1 x29 >= 0 ;
-1 x58 +1 x40 >= 0 ;
+1 x58 -1 x29 -1 x40 >= -1 ;
-1 x50 +1 x28 >= 0 ;
-1 x50 +1 x41 >= 0 ;
+1 x50 -1 x28 -1 x41 >= -1 ;
+1 x244 -1 x82 = 0 ;
+2 x155 +1 x236 -1 x74 -1 x146 -1 x244 = 0 ;
+2 x147 +1 x228 -1 x66 -1 x138 -1 x236 = 0 ;
+2 x139 +1 x220 -1 x58 -1 x130 -1 x228 = 0 ;
+2 x131 +1 x212 -1 x50 -1 x220 = 0 ;
+1 x212 -1 x536 = 0 ;
-1 x325 +1 x23 >= 0 ;
-1 x325 +1 x37 >= 0 ;
+1 x325 -1 x23 -1 x37 >= -1 ;
-1 x317 +1 x22 >= 0 ;
-1 x317 +1 x38 >= 0 ;
+1 x317 -1 x22 -1 x38 >= -1 ;
-1 x309 +1 x21 >= 0 ;
-1 x309 +1 x39 >= 0 ;
+1 x309 -1 x21 -1 x39 >= -1 ;
-1 x301 +1 x20 >= 0 ;
-1 x301 +1 x40 >= 0 ;
+1 x301 -1 x20 -1 x40 >= -1 ;
-1 x293 +1 x19 >= 0 ;
-1 x293 +1 x41 >= 0 ;
+1 x293 -1 x19 -1 x41 >= -1 ;
+1 x487 -1 x325 = 0 ;
+2 x398 +1 x479 -1 x317 -1 x389 -1 x487 = 0 ;
+2 x390 +1 x471 -1 x309 -1 x381 -1 x479 = 0 ;
+2 x382 +1 x463 -1 x301 -1 x373 -1 x471 = 0 ;
+2 x374 +1 x455 -1 x293 -1 x463 = 0 ;
+1 x455 -1 x554 = 0 ;
-1 x91 +1 x33 >= 0 ;
-1 x91 +1 x37 >= 0 ;
+1 x91 -1 x33 -1 x37 >= -1 ;
-1 x83 +1 x32 >= 0 ;
-1 x83 +1 x38 >= 0 ;
+1 x83 -1 x32 -1 x38 >= -1 ;
-1 x75 +1 x31 >= 0 ;
-1 x75 +1 x39 >= 0 ;
+1 x75 -1 x31 -1 x39 >= -1 ;
-1 x67 +1 x30 >= 0 ;
-1 x67 +1 x40 >= 0 ;
+1 x67 -1 x30 -1 x40 >= -1 ;
-1 x59 +1 x29 >= 0 ;
-1 x59 +1 x41 >= 0 ;
+1 x59 -1 x29 -1 x41 >= -1 ;
-1 x51 +1 x28 >= 0 ;
-1 x51 +1 x42 >= 0 ;
+1 x51 -1 x28 -1 x42 >= -1 ;
+1 x253 -1 x91 = 0 ;
+2 x164 +1 x245 -1 x83 -1 x155 -1 x253 = 0 ;
+2 x156 +1 x237 -1 x75 -1 x147 -1 x245 = 0 ;
+2 x148 +1 x229 -1 x67 -1 x139 -1 x237 = 0 ;
+2 x140 +1 x221 -1 x59 -1 x131 -1 x229 = 0 ;
+2 x132 +1 x213 -1 x51 -1 x221 = 0 ;
+1 x213 -1 x537 = 0 ;
-1 x334 +1 x24 >= 0 ;
-1 x334 +1 x37 >= 0 ;
+1 x334 -1 x24 -1 x37 >= -1 ;
-1 x326 +1 x23 >= 0 ;
-1 x326 +1 x38 >= 0 ;
+1 x326 -1 x23 -1 x38 >= -1 ;
-1 x318 +1 x22 >= 0 ;
-1 x318 +1 x39 >= 0 ;
+1 x318 -1 x22 -1 x39 >= -1 ;
-1 x310 +1 x21 >= 0 ;
-1 x310 +1 x40 >= 0 ;
+1 x310 -1 x21 -1 x40 >= -1 ;
-1 x302 +1 x20 >= 0 ;
-1 x302 +1 x41 >= 0 ;
+1 x302 -1 x20 -1 x41 >= -1 ;
-1 x294 +1 x19 >= 0 ;
-1 x294 +1 x42 >= 0 ;
+1 x294 -1 x19 -1 x42 >= -1 ;
+1 x496 -1 x334 = 0 ;
+2 x407 +1 x488 -1 x326 -1 x398 -1 x496 = 0 ;
+2 x399 +1 x480 -1 x318 -1 x390 -1 x488 = 0 ;
+2 x391 +1 x472 -1 x310 -1 x382 -1 x480 = 0 ;
+2 x383 +1 x464 -1 x302 -1 x374 -1 x472 = 0 ;
+2 x375 +1 x456 -1 x294 -1 x464 = 0 ;
+1 x456 -1 x555 = 0 ;
-1 x100 +1 x34 >= 0 ;
-1 x100 +1 x37 >= 0 ;
+1 x100 -1 x34 -1 x37 >= -1 ;
-1 x92 +1 x33 >= 0 ;
-1 x92 +1 x38 >= 0 ;
+1 x92 -1 x33 -1 x38 >= -1 ;
-1 x84 +1 x32 >= 0 ;
-1 x84 +1 x39 >= 0 ;
+1 x84 -1 x32 -1 x39 >= -1 ;
-1 x76 +1 x31 >= 0 ;
-1 x76 +1 x40 >= 0 ;
+1 x76 -1 x31 -1 x40 >= -1 ;
-1 x68 +1 x30 >= 0 ;
-1 x68 +1 x41 >= 0 ;
+1 x68 -1 x30 -1 x41 >= -1 ;
-1 x60 +1 x29 >= 0 ;
-1 x60 +1 x42 >= 0 ;
+1 x60 -1 x29 -1 x42 >= -1 ;
-1 x52 +1 x28 >= 0 ;
-1 x52 +1 x43 >= 0 ;
+1 x52 -1 x28 -1 x43 >= -1 ;
+1 x262 -1 x100 = 0 ;
+2 x173 +1 x254 -1 x92 -1 x164 -1 x262 = 0 ;
+2 x165 +1 x246 -1 x84 -1 x156 -1 x254 = 0 ;
+2 x157 +1 x238 -1 x76 -1 x148 -1 x246 = 0 ;
+2 x149 +1 x230 -1 x68 -1 x140 -1 x238 = 0 ;
+2 x141 +1 x222 -1 x60 -1 x132 -1 x230 = 0 ;
+2 x133 +1 x214 -1 x52 -1 x222 = 0 ;
+1 x214 -1 x538 = 0 ;
-1 x343 +1 x25 >= 0 ;
-1 x343 +1 x37 >= 0 ;
+1 x343 -1 x25 -1 x37 >= -1 ;
-1 x335 +1 x24 >= 0 ;
-1 x335 +1 x38 >= 0 ;
+1 x335 -1 x24 -1 x38 >= -1 ;
-1 x327 +1 x23 >= 0 ;
-1 x327 +1 x39 >= 0 ;
+1 x327 -1 x23 -1 x39 >= -1 ;
-1 x319 +1 x22 >= 0 ;
-1 x319 +1 x40 >= 0 ;
+1 x319 -1 x22 -1 x40 >= -1 ;
-1 x311 +1 x21 >= 0 ;
-1 x311 +1 x41 >= 0 ;
+1 x311 -1 x21 -1 x41 >= -1 ;
-1 x303 +1 x20 >= 0 ;
-1 x303 +1 x42 >= 0 ;
+1 x303 -1 x20 -1 x42 >= -1 ;
-1 x295 +1 x19 >= 0 ;
-1 x295 +1 x43 >= 0 ;
+1 x295 -1 x19 -1 x43 >= -1 ;
+1 x505 -1 x343 = 0 ;
+2 x416 +1 x497 -1 x335 -1 x407 -1 x505 = 0 ;
+2 x408 +1 x489 -1 x327 -1 x399 -1 x497 = 0 ;
+2 x400 +1 x481 -1 x319 -1 x391 -1 x489 = 0 ;
+2 x392 +1 x473 -1 x311 -1 x383 -1 x481 = 0 ;
+2 x384 +1 x465 -1 x303 -1 x375 -1 x473 = 0 ;
+2 x376 +1 x457 -1 x295 -1 x465 = 0 ;
+1 x457 -1 x556 = 0 ;
-1 x109 +1 x35 >= 0 ;
-1 x109 +1 x37 >= 0 ;
+1 x109 -1 x35 -1 x37 >= -1 ;
-1 x101 +1 x34 >= 0 ;
-1 x101 +1 x38 >= 0 ;
+1 x101 -1 x34 -1 x38 >= -1 ;
-1 x93 +1 x33 >= 0 ;
-1 x93 +1 x39 >= 0 ;
+1 x93 -1 x33 -1 x39 >= -1 ;
-1 x85 +1 x32 >= 0 ;
-1 x85 +1 x40 >= 0 ;
+1 x85 -1 x32 -1 x40 >= -1 ;
-1 x77 +1 x31 >= 0 ;
-1 x77 +1 x41 >= 0 ;
+1 x77 -1 x31 -1 x41 >= -1 ;
-1 x69 +1 x30 >= 0 ;
-1 x69 +1 x42 >= 0 ;
+1 x69 -1 x30 -1 x42 >= -1 ;
-1 x61 +1 x29 >= 0 ;
-1 x61 +1 x43 >= 0 ;
+1 x61 -1 x29 -1 x43 >= -1 ;
-1 x53 +1 x28 >= 0 ;
-1 x53 +1 x44 >= 0 ;
+1 x53 -1 x28 -1 x44 >= -1 ;
+1 x271 -1 x109 = 0 ;
+2 x182 +1 x263 -1 x101 -1 x173 -1 x271 = 0 ;
+2 x174 +1 x255 -1 x93 -1 x165 -1 x263 = 0 ;
+2 x166 +1 x247 -1 x85 -1 x157 -1 x255 = 0 ;
+2 x158 +1 x239 -1 x77 -1 x149 -1 x247 = 0 ;
+2 x150 +1 x231 -1 x69 -1 x141 -1 x239 = 0 ;
+2 x142 +1 x223 -1 x61 -1 x133 -1 x231 = 0 ;
+2 x134 +1 x215 -1 x53 -1 x223 = 0 ;
+1 x215 -1 x539 = 0 ;
-1 x352 +1 x26 >= 0 ;
-1 x352 +1 x37 >= 0 ;
+1 x352 -1 x26 -1 x37 >= -1 ;
-1 x344 +1 x25 >= 0 ;
-1 x344 +1 x38 >= 0 ;
+1 x344 -1 x25 -1 x38 >= -1 ;
-1 x336 +1 x24 >= 0 ;
-1 x336 +1 x39 >= 0 ;
+1 x336 -1 x24 -1 x39 >= -1 ;
-1 x328 +1 x23 >= 0 ;
-1 x328 +1 x40 >= 0 ;
+1 x328 -1 x23 -1 x40 >= -1 ;
-1 x320 +1 x22 >= 0 ;
-1 x320 +1 x41 >= 0 ;
+1 x320 -1 x22 -1 x41 >= -1 ;
-1 x312 +1 x21 >= 0 ;
-1 x312 +1 x42 >= 0 ;
+1 x312 -1 x21 -1 x42 >= -1 ;
-1 x304 +1 x20 >= 0 ;
-1 x304 +1 x43 >= 0 ;
+1 x304 -1 x20 -1 x43 >= -1 ;
-1 x296 +1 x19 >= 0 ;
-1 x296 +1 x44 >= 0 ;
+1 x296 -1 x19 -1 x44 >= -1 ;
+1 x514 -1 x352 = 0 ;
+2 x425 +1 x506 -1 x344 -1 x416 -1 x514 = 0 ;
+2 x417 +1 x498 -1 x336 -1 x408 -1 x506 = 0 ;
+2 x409 +1 x490 -1 x328 -1 x400 -1 x498 = 0 ;
+2 x401 +1 x482 -1 x320 -1 x392 -1 x490 = 0 ;
+2 x393 +1 x474 -1 x312 -1 x384 -1 x482 = 0 ;
+2 x385 +1 x466 -1 x304 -1 x376 -1 x474 = 0 ;
+2 x377 +1 x458 -1 x296 -1 x466 = 0 ;
+1 x458 -1 x557 = 0 ;
-1 x118 +1 x36 >= 0 ;
-1 x118 +1 x37 >= 0 ;
+1 x118 -1 x36 -1 x37 >= -1 ;
-1 x110 +1 x35 >= 0 ;
-1 x110 +1 x38 >= 0 ;
+1 x110 -1 x35 -1 x38 >= -1 ;
-1 x102 +1 x34 >= 0 ;
-1 x102 +1 x39 >= 0 ;
+1 x102 -1 x34 -1 x39 >= -1 ;
-1 x94 +1 x33 >= 0 ;
-1 x94 +1 x40 >= 0 ;
+1 x94 -1 x33 -1 x40 >= -1 ;
-1 x86 +1 x32 >= 0 ;
-1 x86 +1 x41 >= 0 ;
+1 x86 -1 x32 -1 x41 >= -1 ;
-1 x78 +1 x31 >= 0 ;
-1 x78 +1 x42 >= 0 ;
+1 x78 -1 x31 -1 x42 >= -1 ;
-1 x70 +1 x30 >= 0 ;
-1 x70 +1 x43 >= 0 ;
+1 x70 -1 x30 -1 x43 >= -1 ;
-1 x62 +1 x29 >= 0 ;
-1 x62 +1 x44 >= 0 ;
+1 x62 -1 x29 -1 x44 >= -1 ;
-1 x54 +1 x28 >= 0 ;
-1 x54 +1 x45 >= 0 ;
+1 x54 -1 x28 -1 x45 >= -1 ;
+1 x280 -1 x118 = 0 ;
+2 x191 +1 x272 -1 x110 -1 x182 -1 x280 = 0 ;
+2 x183 +1 x264 -1 x102 -1 x174 -1 x272 = 0 ;
+2 x175 +1 x256 -1 x94 -1 x166 -1 x264 = 0 ;
+2 x167 +1 x248 -1 x86 -1 x158 -1 x256 = 0 ;
+2 x159 +1 x240 -1 x78 -1 x150 -1 x248 = 0 ;
+2 x151 +1 x232 -1 x70 -1 x142 -1 x240 = 0 ;
+2 x143 +1 x224 -1 x62 -1 x134 -1 x232 = 0 ;
+2 x135 +1 x216 -1 x54 -1 x224 = 0 ;
+1 x216 -1 x540 = 0 ;
-1 x361 +1 x27 >= 0 ;
-1 x361 +1 x37 >= 0 ;
+1 x361 -1 x27 -1 x37 >= -1 ;
-1 x353 +1 x26 >= 0 ;
-1 x353 +1 x38 >= 0 ;
+1 x353 -1 x26 -1 x38 >= -1 ;
-1 x345 +1 x25 >= 0 ;
-1 x345 +1 x39 >= 0 ;
+1 x345 -1 x25 -1 x39 >= -1 ;
-1 x337 +1 x24 >= 0 ;
-1 x337 +1 x40 >= 0 ;
+1 x337 -1 x24 -1 x40 >= -1 ;
-1 x329 +1 x23 >= 0 ;
-1 x329 +1 x41 >= 0 ;
+1 x329 -1 x23 -1 x41 >= -1 ;
-1 x321 +1 x22 >= 0 ;
-1 x321 +1 x42 >= 0 ;
+1 x321 -1 x22 -1 x42 >= -1 ;
-1 x313 +1 x21 >= 0 ;
-1 x313 +1 x43 >= 0 ;
+1 x313 -1 x21 -1 x43 >= -1 ;
-1 x305 +1 x20 >= 0 ;
-1 x305 +1 x44 >= 0 ;
+1 x305 -1 x20 -1 x44 >= -1 ;
-1 x297 +1 x19 >= 0 ;
-1 x297 +1 x45 >= 0 ;
+1 x297 -1 x19 -1 x45 >= -1 ;
+1 x523 -1 x361 = 0 ;
+2 x434 +1 x515 -1 x353 -1 x425 -1 x523 = 0 ;
+2 x426 +1 x507 -1 x345 -1 x417 -1 x515 = 0 ;
+2 x418 +1 x499 -1 x337 -1 x409 -1 x507 = 0 ;
+2 x410 +1 x491 -1 x329 -1 x401 -1 x499 = 0 ;
+2 x402 +1 x483 -1 x321 -1 x393 -1 x491 = 0 ;
+2 x394 +1 x475 -1 x313 -1 x385 -1 x483 = 0 ;
+2 x386 +1 x467 -1 x305 -1 x377 -1 x475 = 0 ;
+2 x378 +1 x459 -1 x297 -1 x467 = 0 ;
+1 x459 -1 x558 = 0 ;
-1 x119 +1 x36 >= 0 ;
-1 x119 +1 x38 >= 0 ;
+1 x119 -1 x36 -1 x38 >= -1 ;
-1 x111 +1 x35 >= 0 ;
-1 x111 +1 x39 >= 0 ;
+1 x111 -1 x35 -1 x39 >= -1 ;
-1 x103 +1 x34 >= 0 ;
-1 x103 +1 x40 >= 0 ;
+1 x103 -1 x34 -1 x40 >= -1 ;
-1 x95 +1 x33 >= 0 ;
-1 x95 +1 x41 >= 0 ;
+1 x95 -1 x33 -1 x41 >= -1 ;
-1 x87 +1 x32 >= 0 ;
-1 x87 +1 x42 >= 0 ;
+1 x87 -1 x32 -1 x42 >= -1 ;
-1 x79 +1 x31 >= 0 ;
-1 x79 +1 x43 >= 0 ;
+1 x79 -1 x31 -1 x43 >= -1 ;
-1 x71 +1 x30 >= 0 ;
-1 x71 +1 x44 >= 0 ;
+1 x71 -1 x30 -1 x44 >= -1 ;
-1 x63 +1 x29 >= 0 ;
-1 x63 +1 x45 >= 0 ;
+1 x63 -1 x29 -1 x45 >= -1 ;
+2 x200 +1 x281 -1 x119 -1 x191 = 0 ;
+2 x192 +1 x273 -1 x111 -1 x183 -1 x281 = 0 ;
+2 x184 +1 x265 -1 x103 -1 x175 -1 x273 = 0 ;
+2 x176 +1 x257 -1 x95 -1 x167 -1 x265 = 0 ;
+2 x168 +1 x249 -1 x87 -1 x159 -1 x257 = 0 ;
+2 x160 +1 x241 -1 x79 -1 x151 -1 x249 = 0 ;
+2 x152 +1 x233 -1 x71 -1 x143 -1 x241 = 0 ;
+2 x144 +1 x225 -1 x63 -1 x135 -1 x233 = 0 ;
+1 x225 -1 x541 = 0 ;
-1 x362 +1 x27 >= 0 ;
-1 x362 +1 x38 >= 0 ;
+1 x362 -1 x27 -1 x38 >= -1 ;
-1 x354 +1 x26 >= 0 ;
-1 x354 +1 x39 >= 0 ;
+1 x354 -1 x26 -1 x39 >= -1 ;
-1 x346 +1 x25 >= 0 ;
-1 x346 +1 x40 >= 0 ;
+1 x346 -1 x25 -1 x40 >= -1 ;
-1 x338 +1 x24 >= 0 ;
-1 x338 +1 x41 >= 0 ;
+1 x338 -1 x24 -1 x41 >= -1 ;
-1 x330 +1 x23 >= 0 ;
-1 x330 +1 x42 >= 0 ;
+1 x330 -1 x23 -1 x42 >= -1 ;
-1 x322 +1 x22 >= 0 ;
-1 x322 +1 x43 >= 0 ;
+1 x322 -1 x22 -1 x43 >= -1 ;
-1 x314 +1 x21 >= 0 ;
-1 x314 +1 x44 >= 0 ;
+1 x314 -1 x21 -1 x44 >= -1 ;
-1 x306 +1 x20 >= 0 ;
-1 x306 +1 x45 >= 0 ;
+1 x306 -1 x20 -1 x45 >= -1 ;
+2 x443 +1 x524 -1 x362 -1 x434 = 0 ;
+2 x435 +1 x516 -1 x354 -1 x426 -1 x524 = 0 ;
+2 x427 +1 x508 -1 x346 -1 x418 -1 x516 = 0 ;
+2 x419 +1 x500 -1 x338 -1 x410 -1 x508 = 0 ;
+2 x411 +1 x492 -1 x330 -1 x402 -1 x500 = 0 ;
+2 x403 +1 x484 -1 x322 -1 x394 -1 x492 = 0 ;
+2 x395 +1 x476 -1 x314 -1 x386 -1 x484 = 0 ;
+2 x387 +1 x468 -1 x306 -1 x378 -1 x476 = 0 ;
+1 x468 -1 x559 = 0 ;
-1 x120 +1 x36 >= 0 ;
-1 x120 +1 x39 >= 0 ;
+1 x120 -1 x36 -1 x39 >= -1 ;
-1 x112 +1 x35 >= 0 ;
-1 x112 +1 x40 >= 0 ;
+1 x112 -1 x35 -1 x40 >= -1 ;
-1 x104 +1 x34 >= 0 ;
-1 x104 +1 x41 >= 0 ;
+1 x104 -1 x34 -1 x41 >= -1 ;
-1 x96 +1 x33 >= 0 ;
-1 x96 +1 x42 >= 0 ;
+1 x96 -1 x33 -1 x42 >= -1 ;
-1 x88 +1 x32 >= 0 ;
-1 x88 +1 x43 >= 0 ;
+1 x88 -1 x32 -1 x43 >= -1 ;
-1 x80 +1 x31 >= 0 ;
-1 x80 +1 x44 >= 0 ;
+1 x80 -1 x31 -1 x44 >= -1 ;
-1 x72 +1 x30 >= 0 ;
-1 x72 +1 x45 >= 0 ;
+1 x72 -1 x30 -1 x45 >= -1 ;
+2 x201 +1 x282 -1 x120 -1 x192 -1 x200 = 0 ;
+2 x193 +1 x274 -1 x112 -1 x184 -1 x282 = 0 ;
+2 x185 +1 x266 -1 x104 -1 x176 -1 x274 = 0 ;
+2 x177 +1 x258 -1 x96 -1 x168 -1 x266 = 0 ;
+2 x169 +1 x250 -1 x88 -1 x160 -1 x258 = 0 ;
+2 x161 +1 x242 -1 x80 -1 x152 -1 x250 = 0 ;
+2 x153 +1 x234 -1 x72 -1 x144 -1 x242 = 0 ;
+1 x234 -1 x542 = 0 ;
-1 x363 +1 x27 >= 0 ;
-1 x363 +1 x39 >= 0 ;
+1 x363 -1 x27 -1 x39 >= -1 ;
-1 x355 +1 x26 >= 0 ;
-1 x355 +1 x40 >= 0 ;
+1 x355 -1 x26 -1 x40 >= -1 ;
-1 x347 +1 x25 >= 0 ;
-1 x347 +1 x41 >= 0 ;
+1 x347 -1 x25 -1 x41 >= -1 ;
-1 x339 +1 x24 >= 0 ;
-1 x339 +1 x42 >= 0 ;
+1 x339 -1 x24 -1 x42 >= -1 ;
-1 x331 +1 x23 >= 0 ;
-1 x331 +1 x43 >= 0 ;
+1 x331 -1 x23 -1 x43 >= -1 ;
-1 x323 +1 x22 >= 0 ;
-1 x323 +1 x44 >= 0 ;
+1 x323 -1 x22 -1 x44 >= -1 ;
-1 x315 +1 x21 >= 0 ;
-1 x315 +1 x45 >= 0 ;
+1 x315 -1 x21 -1 x45 >= -1 ;
+2 x444 +1 x525 -1 x363 -1 x435 -1 x443 = 0 ;
+2 x436 +1 x517 -1 x355 -1 x427 -1 x525 = 0 ;
+2 x428 +1 x509 -1 x347 -1 x419 -1 x517 = 0 ;
+2 x420 +1 x501 -1 x339 -1 x411 -1 x509 = 0 ;
+2 x412 +1 x493 -1 x331 -1 x403 -1 x501 = 0 ;
+2 x404 +1 x485 -1 x323 -1 x395 -1 x493 = 0 ;
+2 x396 +1 x477 -1 x315 -1 x387 -1 x485 = 0 ;
+1 x477 -1 x560 = 0 ;
-1 x121 +1 x36 >= 0 ;
-1 x121 +1 x40 >= 0 ;
+1 x121 -1 x36 -1 x40 >= -1 ;
-1 x113 +1 x35 >= 0 ;
-1 x113 +1 x41 >= 0 ;
+1 x113 -1 x35 -1 x41 >= -1 ;
-1 x105 +1 x34 >= 0 ;
-1 x105 +1 x42 >= 0 ;
+1 x105 -1 x34 -1 x42 >= -1 ;
-1 x97 +1 x33 >= 0 ;
-1 x97 +1 x43 >= 0 ;
+1 x97 -1 x33 -1 x43 >= -1 ;
-1 x89 +1 x32 >= 0 ;
-1 x89 +1 x44 >= 0 ;
+1 x89 -1 x32 -1 x44 >= -1 ;
-1 x81 +1 x31 >= 0 ;
-1 x81 +1 x45 >= 0 ;
+1 x81 -1 x31 -1 x45 >= -1 ;
+2 x202 +1 x283 -1 x121 -1 x193 -1 x201 = 0 ;
+2 x194 +1 x275 -1 x113 -1 x185 -1 x283 = 0 ;
+2 x186 +1 x267 -1 x105 -1 x177 -1 x275 = 0 ;
+2 x178 +1 x259 -1 x97 -1 x169 -1 x267 = 0 ;
+2 x170 +1 x251 -1 x89 -1 x161 -1 x259 = 0 ;
+2 x162 +1 x243 -1 x81 -1 x153 -1 x251 = 0 ;
+1 x243 -1 x543 = 0 ;
-1 x364 +1 x27 >= 0 ;
-1 x364 +1 x40 >= 0 ;
+1 x364 -1 x27 -1 x40 >= -1 ;
-1 x356 +1 x26 >= 0 ;
-1 x356 +1 x41 >= 0 ;
+1 x356 -1 x26 -1 x41 >= -1 ;
-1 x348 +1 x25 >= 0 ;
-1 x348 +1 x42 >= 0 ;
+1 x348 -1 x25 -1 x42 >= -1 ;
-1 x340 +1 x24 >= 0 ;
-1 x340 +1 x43 >= 0 ;
+1 x340 -1 x24 -1 x43 >= -1 ;
-1 x332 +1 x23 >= 0 ;
-1 x332 +1 x44 >= 0 ;
+1 x332 -1 x23 -1 x44 >= -1 ;
-1 x324 +1 x22 >= 0 ;
-1 x324 +1 x45 >= 0 ;
+1 x324 -1 x22 -1 x45 >= -1 ;
+2 x445 +1 x526 -1 x364 -1 x436 -1 x444 = 0 ;
+2 x437 +1 x518 -1 x356 -1 x428 -1 x526 = 0 ;
+2 x429 +1 x510 -1 x348 -1 x420 -1 x518 = 0 ;
+2 x421 +1 x502 -1 x340 -1 x412 -1 x510 = 0 ;
+2 x413 +1 x494 -1 x332 -1 x404 -1 x502 = 0 ;
+2 x405 +1 x486 -1 x324 -1 x396 -1 x494 = 0 ;
+1 x486 -1 x561 = 0 ;
-1 x122 +1 x36 >= 0 ;
-1 x122 +1 x41 >= 0 ;
+1 x122 -1 x36 -1 x41 >= -1 ;
-1 x114 +1 x35 >= 0 ;
-1 x114 +1 x42 >= 0 ;
+1 x114 -1 x35 -1 x42 >= -1 ;
-1 x106 +1 x34 >= 0 ;
-1 x106 +1 x43 >= 0 ;
+1 x106 -1 x34 -1 x43 >= -1 ;
-1 x98 +1 x33 >= 0 ;
-1 x98 +1 x44 >= 0 ;
+1 x98 -1 x33 -1 x44 >= -1 ;
-1 x90 +1 x32 >= 0 ;
-1 x90 +1 x45 >= 0 ;
+1 x90 -1 x32 -1 x45 >= -1 ;
+2 x203 +1 x284 -1 x122 -1 x194 -1 x202 = 0 ;
+2 x195 +1 x276 -1 x114 -1 x186 -1 x284 = 0 ;
+2 x187 +1 x268 -1 x106 -1 x178 -1 x276 = 0 ;
+2 x179 +1 x260 -1 x98 -1 x170 -1 x268 = 0 ;
+2 x171 +1 x252 -1 x90 -1 x162 -1 x260 = 0 ;
+1 x252 -1 x544 = 0 ;
-1 x365 +1 x27 >= 0 ;
-1 x365 +1 x41 >= 0 ;
+1 x365 -1 x27 -1 x41 >= -1 ;
-1 x357 +1 x26 >= 0 ;
-1 x357 +1 x42 >= 0 ;
+1 x357 -1 x26 -1 x42 >= -1 ;
-1 x349 +1 x25 >= 0 ;
-1 x349 +1 x43 >= 0 ;
+1 x349 -1 x25 -1 x43 >= -1 ;
-1 x341 +1 x24 >= 0 ;
-1 x341 +1 x44 >= 0 ;
+1 x341 -1 x24 -1 x44 >= -1 ;
-1 x333 +1 x23 >= 0 ;
-1 x333 +1 x45 >= 0 ;
+1 x333 -1 x23 -1 x45 >= -1 ;
+2 x446 +1 x527 -1 x365 -1 x437 -1 x445 = 0 ;
+2 x438 +1 x519 -1 x357 -1 x429 -1 x527 = 0 ;
+2 x430 +1 x511 -1 x349 -1 x421 -1 x519 = 0 ;
+2 x422 +1 x503 -1 x341 -1 x413 -1 x511 = 0 ;
+2 x414 +1 x495 -1 x333 -1 x405 -1 x503 = 0 ;
+1 x495 -1 x562 = 0 ;
-1 x123 +1 x36 >= 0 ;
-1 x123 +1 x42 >= 0 ;
+1 x123 -1 x36 -1 x42 >= -1 ;
-1 x115 +1 x35 >= 0 ;
-1 x115 +1 x43 >= 0 ;
+1 x115 -1 x35 -1 x43 >= -1 ;
-1 x107 +1 x34 >= 0 ;
-1 x107 +1 x44 >= 0 ;
+1 x107 -1 x34 -1 x44 >= -1 ;
-1 x99 +1 x33 >= 0 ;
-1 x99 +1 x45 >= 0 ;
+1 x99 -1 x33 -1 x45 >= -1 ;
+2 x204 +1 x285 -1 x123 -1 x195 -1 x203 = 0 ;
+2 x196 +1 x277 -1 x115 -1 x187 -1 x285 = 0 ;
+2 x188 +1 x269 -1 x107 -1 x179 -1 x277 = 0 ;
+2 x180 +1 x261 -1 x99 -1 x171 -1 x269 = 0 ;
+1 x261 -1 x545 = 0 ;
-1 x366 +1 x27 >= 0 ;
-1 x366 +1 x42 >= 0 ;
+1 x366 -1 x27 -1 x42 >= -1 ;
-1 x358 +1 x26 >= 0 ;
-1 x358 +1 x43 >= 0 ;
+1 x358 -1 x26 -1 x43 >= -1 ;
-1 x350 +1 x25 >= 0 ;
-1 x350 +1 x44 >= 0 ;
+1 x350 -1 x25 -1 x44 >= -1 ;
-1 x342 +1 x24 >= 0 ;
-1 x342 +1 x45 >= 0 ;
+1 x342 -1 x24 -1 x45 >= -1 ;
+2 x447 +1 x528 -1 x366 -1 x438 -1 x446 = 0 ;
+2 x439 +1 x520 -1 x358 -1 x430 -1 x528 = 0 ;
+2 x431 +1 x512 -1 x350 -1 x422 -1 x520 = 0 ;
+2 x423 +1 x504 -1 x342 -1 x414 -1 x512 = 0 ;
+1 x504 -1 x563 = 0 ;
-1 x124 +1 x36 >= 0 ;
-1 x124 +1 x43 >= 0 ;
+1 x124 -1 x36 -1 x43 >= -1 ;
-1 x116 +1 x35 >= 0 ;
-1 x116 +1 x44 >= 0 ;
+1 x116 -1 x35 -1 x44 >= -1 ;
-1 x108 +1 x34 >= 0 ;
-1 x108 +1 x45 >= 0 ;
+1 x108 -1 x34 -1 x45 >= -1 ;
+2 x205 +1 x286 -1 x124 -1 x196 -1 x204 = 0 ;
+2 x197 +1 x278 -1 x116 -1 x188 -1 x286 = 0 ;
+2 x189 +1 x270 -1 x108 -1 x180 -1 x278 = 0 ;
+1 x270 -1 x546 = 0 ;
-1 x367 +1 x27 >= 0 ;
-1 x367 +1 x43 >= 0 ;
+1 x367 -1 x27 -1 x43 >= -1 ;
-1 x359 +1 x26 >= 0 ;
-1 x359 +1 x44 >= 0 ;
+1 x359 -1 x26 -1 x44 >= -1 ;
-1 x351 +1 x25 >= 0 ;
-1 x351 +1 x45 >= 0 ;
+1 x351 -1 x25 -1 x45 >= -1 ;
+2 x448 +1 x529 -1 x367 -1 x439 -1 x447 = 0 ;
+2 x440 +1 x521 -1 x359 -1 x431 -1 x529 = 0 ;
+2 x432 +1 x513 -1 x351 -1 x423 -1 x521 = 0 ;
+1 x513 -1 x564 = 0 ;
-1 x125 +1 x36 >= 0 ;
-1 x125 +1 x44 >= 0 ;
+1 x125 -1 x36 -1 x44 >= -1 ;
-1 x117 +1 x35 >= 0 ;
-1 x117 +1 x45 >= 0 ;
+1 x117 -1 x35 -1 x45 >= -1 ;
+2 x206 +1 x287 -1 x125 -1 x197 -1 x205 = 0 ;
+2 x198 +1 x279 -1 x117 -1 x189 -1 x287 = 0 ;
+1 x279 -1 x547 = 0 ;
-1 x368 +1 x27 >= 0 ;
-1 x368 +1 x44 >= 0 ;
+1 x368 -1 x27 -1 x44 >= -1 ;
-1 x360 +1 x26 >= 0 ;
-1 x360 +1 x45 >= 0 ;
+1 x360 -1 x26 -1 x45 >= -1 ;
+2 x449 +1 x530 -1 x368 -1 x440 -1 x448 = 0 ;
+2 x441 +1 x522 -1 x360 -1 x432 -1 x530 = 0 ;
+1 x522 -1 x565 = 0 ;
-1 x126 +1 x36 >= 0 ;
-1 x126 +1 x45 >= 0 ;
+1 x126 -1 x36 -1 x45 >= -1 ;
+2 x207 +1 x288 -1 x126 -1 x198 -1 x206 = 0 ;
+1 x288 -1 x548 = 0 ;
-1 x369 +1 x27 >= 0 ;
-1 x369 +1 x45 >= 0 ;
+1 x369 -1 x27 -1 x45 >= -1 ;
+2 x450 +1 x531 -1 x369 -1 x441 -1 x449 = 0 ;
+1 x531 -1 x566 = 0 ;
+1 x207 -1 x549 = 0 ;
+1 x450 -1 x567 = 0 ;
